p edge 50 368
e 1 2
e 1 5
e 1 14
e 1 17
e 1 21
e 1 22
e 1 34
e 1 35
e 1 37
e 1 40
e 1 41
e 1 46
e 2 3
e 2 5
e 2 6
e 2 8
e 2 9
e 2 10
e 2 15
e 2 28
e 2 29
e 2 33
e 2 34
e 2 35
e 2 37
e 2 38
e 2 42
e 2 44
e 2 48
e 3 4
e 3 11
e 3 12
e 3 14
e 3 15
e 3 17
e 3 21
e 3 23
e 3 24
e 3 25
e 3 27
e 3 34
e 3 40
e 3 42
e 3 46
e 3 47
e 3 49
e 4 6
e 4 10
e 4 21
e 4 26
e 4 31
e 4 36
e 4 42
e 4 43
e 4 44
e 4 50
e 5 6
e 5 8
e 5 10
e 5 13
e 5 15
e 5 18
e 5 21
e 5 22
e 5 24
e 5 25
e 5 26
e 5 27
e 5 29
e 5 31
e 5 34
e 5 36
e 5 38
e 5 39
e 5 44
e 5 45
e 5 47
e 5 50
e 6 12
e 6 13
e 6 14
e 6 18
e 6 19
e 6 20
e 6 26
e 6 30
e 6 37
e 6 41
e 6 42
e 6 43
e 6 45
e 6 48
e 6 49
e 7 18
e 7 23
e 7 24
e 7 28
e 7 29
e 7 31
e 7 32
e 7 40
e 7 42
e 7 47
e 7 48
e 7 49
e 8 13
e 8 18
e 8 20
e 8 21
e 8 24
e 8 31
e 8 33
e 8 34
e 8 36
e 8 45
e 8 50
e 9 13
e 9 15
e 9 19
e 9 21
e 9 28
e 9 31
e 9 33
e 9 35
e 10 12
e 10 15
e 10 23
e 10 26
e 10 27
e 10 29
e 10 30
e 10 32
e 10 37
e 10 39
e 10 43
e 11 13
e 11 17
e 11 19
e 11 22
e 11 30
e 11 31
e 11 33
e 11 34
e 11 37
e 12 15
e 12 20
e 12 25
e 12 27
e 12 28
e 12 33
e 12 38
e 12 41
e 12 47
e 12 49
e 12 50
e 13 14
e 13 25
e 13 27
e 13 32
e 13 35
e 13 37
e 13 40
e 14 15
e 14 18
e 14 21
e 14 24
e 14 25
e 14 27
e 14 33
e 14 37
e 14 41
e 14 44
e 14 50
e 15 17
e 15 20
e 15 24
e 15 25
e 15 27
e 15 32
e 15 35
e 15 40
e 15 46
e 16 18
e 16 21
e 16 29
e 16 31
e 16 34
e 16 39
e 16 47
e 16 49
e 16 50
e 17 21
e 17 30
e 17 31
e 17 35
e 17 37
e 17 39
e 17 43
e 17 48
e 18 23
e 18 28
e 18 31
e 18 32
e 18 35
e 18 38
e 18 47
e 19 20
e 19 22
e 19 28
e 19 30
e 19 32
e 19 33
e 19 34
e 19 35
e 19 37
e 19 40
e 19 41
e 19 43
e 19 44
e 19 47
e 20 22
e 20 23
e 20 24
e 20 26
e 20 28
e 20 29
e 20 32
e 20 40
e 20 50
e 21 22
e 21 26
e 21 30
e 21 35
e 21 38
e 21 41
e 21 42
e 21 43
e 21 45
e 21 48
e 21 50
e 22 30
e 22 31
e 22 33
e 22 39
e 22 40
e 22 44
e 22 45
e 22 46
e 22 48
e 22 49
e 23 24
e 23 25
e 23 29
e 23 31
e 23 33
e 23 35
e 23 36
e 23 40
e 23 50
e 24 25
e 24 26
e 24 37
e 24 39
e 24 40
e 24 45
e 24 46
e 24 50
e 25 26
e 25 27
e 25 29
e 25 30
e 25 32
e 25 35
e 25 37
e 25 39
e 25 42
e 25 49
e 26 30
e 26 31
e 26 32
e 26 34
e 26 35
e 26 38
e 26 39
e 26 40
e 26 41
e 26 42
e 26 44
e 26 47
e 26 48
e 27 31
e 27 32
e 27 35
e 27 36
e 27 37
e 27 40
e 27 42
e 28 29
e 28 30
e 28 33
e 28 43
e 28 44
e 28 47
e 29 30
e 29 35
e 29 41
e 29 42
e 29 44
e 29 45
e 30 31
e 30 41
e 30 43
e 30 46
e 30 48
e 30 49
e 31 33
e 31 36
e 31 41
e 31 42
e 31 43
e 32 37
e 32 45
e 32 48
e 32 50
e 33 34
e 33 36
e 33 42
e 33 44
e 33 47
e 34 38
e 34 40
e 34 41
e 34 43
e 34 44
e 34 47
e 34 48
e 34 49
e 35 36
e 35 41
e 35 47
e 35 50
e 36 40
e 36 43
e 36 45
e 36 48
e 36 50
e 37 39
e 37 41
e 37 43
e 37 45
e 38 40
e 38 43
e 38 44
e 39 40
e 39 41
e 39 49
e 39 50
e 40 43
e 41 45
e 41 49
e 42 46
e 42 49
e 42 50
e 43 47
e 43 48
e 45 46
e 45 47
e 45 49